SAT
-20 -83 -35 64 -94 99 50 55 -9 -68 29 24 73 -45 -16 -3 86 100 -32 59 -19 6 18 67 -31 97 36 40 -84 -11 -39 -61 -30 -38 -75 87 -42 52 82 -26 25 -78 -13 -48 -14 -65 81 -93 7 49 -56 41 28 -5 -57 95 63 98 -58 90 -70 15 -44 88 -37 -54 80 -69 -27 10 -89 -34 -92 -66 -85 -8 91 62 33 53 -71 -79 -23 -51 -60 12 43 -72 1 -96 -17 -46 -74 -4 76 -77 -2 47 -22 -21 0
